%%% static parameters %%%
timespan = 1;
Clients_N = [4000];
Demand_W = [15];
Lt0 = [4];
Lt1 = [4];
SS_ = [0.85];
DS_D = [20];
K = [200];
MA = [500];
HC = [0.05];
%%% dynamic parameters %%%
lost_ratio_sales_ret_th = 0.0004982642084906986;
lost_ratio_sales_ret_w = 24;
lost_ratio_sales_dis_th = 0.0008548073895323042;
lost_ratio_sales_dis_w = 35;
lost_ratio_sales_fac_th = 0.0009772378464707996;
lost_ratio_sales_fac_w = 5;
stock_customer_MA_mean_relative_th = 0.35903910123948424;
stock_customer_MA_mean_relative_w = 33;
stock_distributor_MA_mean_relative_th = 0.48773779761736924;
stock_distributor_MA_mean_relative_w = 49;
stock_retailer_MA_mean_relative_th = 0.4058887359800073;
stock_retailer_MA_mean_relative_w = 94;
stock_factory_MA_mean_relative_th = 0.7859673966482382;
stock_factory_MA_mean_relative_w = 79;
